networks/zoo_28_73/zoo_28_73-lower.sol
<?xml version = "1.0" encoding="UTF-8" standalone="yes"?>
<CPLEXSolution version="1.2">
 <header
   problemName="networks/zoo_28_73/zoo_28_73-lower.lp"
   solutionName="incumbent"
   solutionIndex="-1"
   objectiveValue="14"
   solutionTypeValue="3"
   solutionTypeString="primal"
   solutionStatusValue="101"
   solutionStatusString="integer optimal solution"
   solutionMethodString="mip"
   primalFeasible="1"
   dualFeasible="1"
   MIPNodes="0"
   MIPIterations="0"
   writeLevel="3"/>
 <quality
   epInt="1.0000000000000001e-05"
   epRHS="9.9999999999999995e-07"
   maxIntInfeas="0"
   maxPrimalInfeas="0"
   maxX="1"
   maxSlack="1"/>
 <variables>
  <variable name="Y(1,2)" index="1" value="1"/>
  <variable name="Y(2,5)" index="32" value="1"/>
  <variable name="Y(3,7)" index="62" value="1"/>
  <variable name="Y(4,8)" index="91" value="1"/>
  <variable name="Y(5,9)" index="120" value="1"/>
  <variable name="Y(6,10)" index="149" value="1"/>
  <variable name="Y(7,11)" index="178" value="1"/>
  <variable name="Y(8,13)" index="208" value="1"/>
  <variable name="Y(28,1)" index="756" value="1"/>
  <variable name="Y(30,3)" index="814" value="1"/>
  <variable name="Y(31,4)" index="843" value="1"/>
  <variable name="Y(33,6)" index="901" value="1"/>
  <variable name="Y(38,12)" index="1047" value="1"/>
  <variable name="Y(40,14)" index="1105" value="1"/>
  <variable name="X(1,7,1)" index="2044" value="1"/>
  <variable name="X(1,15,28)" index="2144" value="1"/>
  <variable name="X(2,7,9)" index="2198" value="1"/>
  <variable name="X(2,16,1)" index="2263" value="1"/>
  <variable name="X(3,7,10)" index="2345" value="1"/>
  <variable name="X(3,17,30)" index="2438" value="1"/>
  <variable name="X(4,7,17)" index="2498" value="1"/>
  <variable name="X(4,18,31)" index="2585" value="1"/>
  <variable name="X(5,8,22)" index="2649" value="1"/>
  <variable name="X(5,19,2)" index="2702" value="1"/>
  <variable name="X(6,7,23)" index="2796" value="1"/>
  <variable name="X(6,20,33)" index="2879" value="1"/>
  <variable name="X(7,1,28)" index="2947" value="1"/>
  <variable name="X(7,2,1)" index="2993" value="1"/>
  <variable name="X(7,3,30)" index="3095" value="1"/>
  <variable name="X(7,4,31)" index="3169" value="1"/>
  <variable name="X(7,6,33)" index="3244" value="1"/>
  <variable name="X(7,8,2)" index="3286" value="1"/>
  <variable name="X(7,9,5)" index="3362" value="1"/>
  <variable name="X(7,10,6)" index="3436" value="1"/>
  <variable name="X(7,11,7)" index="3510" value="1"/>
  <variable name="X(7,12,38)" index="3614" value="1"/>
  <variable name="X(7,21,3)" index="3652" value="1"/>
  <variable name="X(8,5,2)" index="3724" value="1"/>
  <variable name="X(8,7,22)" index="3817" value="1"/>
  <variable name="X(8,13,8)" index="3876" value="1"/>
  <variable name="X(8,14,40)" index="3981" value="1"/>
  <variable name="X(8,22,4)" index="4018" value="1"/>
  <variable name="X(9,7,45)" index="4132" value="1"/>
  <variable name="X(9,23,5)" index="4165" value="1"/>
  <variable name="X(10,7,52)" index="4285" value="1"/>
  <variable name="X(10,24,6)" index="4312" value="1"/>
  <variable name="X(11,7,56)" index="4435" value="1"/>
  <variable name="X(11,25,7)" index="4459" value="1"/>
  <variable name="X(12,7,63)" index="4588" value="1"/>
  <variable name="X(12,26,38)" index="4636" value="1"/>
  <variable name="X(13,8,72)" index="4743" value="1"/>
  <variable name="X(13,27,8)" index="4752" value="1"/>
  <variable name="X(14,8,73)" index="4890" value="1"/>
  <variable name="X(14,28,40)" index="4930" value="1"/>
 </variables>
</CPLEXSolution>
